data;

param n:=23;
param p:=3;
param r:=[1] 0 [2] 3 [3] 0 [4] 4 [5] 4 [6] 1 [7] 5 [8] 2 [9] 3 [10] 20 [11] 30 [12] 3 [13] 28 [14] 20 [15] 35 [16] 13 [17] 48 [18] 33 [19] 52 [20] 14 [21] 46 [22] 16 [23] 37 ;
param w:=[1] 1 [2] 14 [3] 39 [4] 28 [5] 7 [6] 98 [7] 22 [8] 75 [9] 9 [10] 6 [11] 70 [12] 7 [13] 52 [14] 31 [15] 52 [16] 32 [17] 13 [18] 68 [19] 55 [20] 37 [21] 66 [22] 37 [23] 72 ;

end;
